s td 96 9 104
b 1 1 2 14
b 2 12 13 26
b 3 79 92 93
b 4 91 103 104
b 5 2 3 14 15
b 6 11 12 25 26
b 7 3 4 17 31 45 59 73 87 101
b 8 4 5 17 31 45 59 73 87 101
b 9 5 17 19 31 45 59 73 87 101
b 10 5 19 31 33 45 59 73 87 101
b 11 5 19 33 45 47 59 73 87 101
b 12 5 19 33 47 59 61 73 87 101
b 13 5 7 19 33 47 61 73 87 101
b 14 5 6 7 19
b 15 7 19 21 33 47 61 73 87 101
b 16 7 21 33 35 47 61 73 87 101
b 17 7 21 35 47 49 61 73 87 101
b 18 7 21 35 49 61 73 75 87 101
b 19 7 21 35 49 61 63 75 87 101
b 20 7 21 35 49 63 75 87 89 101
b 21 7 21 35 49 63 75 77 89 101
b 22 7 21 35 49 63 65 77 89 101
b 23 7 21 35 49 51 63 65 77
b 24 7 21 35 37 49 51 63 65
b 25 7 21 23 35 37 49 51 65
b 26 7 11 21 23 35 37 51 65
b 27 7 9 11 21 23 35
b 28 7 8 9 21
b 29 9 10 11 23
b 30 9 21 22 23 35
b 31 11 23 37 39 51 65
b 32 11 23 25 37 39 51
b 33 11 23 24 25 37
b 34 11 25 26 39
b 35 25 37 38 39 51
b 36 39 51 52 65
b 37 23 35 36 37 49
b 38 37 49 50 51 63
b 39 51 63 64 65 77
b 40 65 77 89 101 103
b 41 65 77 89 90 103
b 42 65 77 78 90 103
b 43 89 101 102 103
b 44 63 75 76 77 89
b 45 75 87 88 89 101
b 46 49 61 62 63 75
b 47 61 73 74 75 87
b 48 35 47 48 49 61
b 49 21 33 34 35 47
b 50 7 19 20 21 33
b 51 47 59 60 61 73
b 52 33 45 46 47 59
b 53 19 31 32 33 45
b 54 5 17 18 19 31
b 55 3 17 31 45 59 73 87 99 101
b 56 3 17 31 45 59 73 85 87 99
b 57 3 17 31 45 59 71 73 85 99
b 58 3 17 31 45 57 59 71 85 99
b 59 3 17 31 43 45 57 71 85 99
b 60 3 17 31 43 57 71 85 97 99
b 61 3 17 31 43 57 71 83 85 97
b 62 3 17 31 43 57 69 71 83 97
b 63 3 17 31 43 55 57 69 83 97
b 64 3 17 29 31 43 55 69 83 97
b 65 3 17 29 41 43 55 69 83 97
b 66 3 17 29 41 53 55 69 83 97
b 67 3 17 27 29 41 53
b 68 3 15 17 27 29 41
b 69 3 14 15 27
b 70 3 15 16 17 29
b 71 15 27 28 29 41
b 72 27 40 41 53
b 73 41 53 55 69 83 95 97
b 74 41 53 55 69 81 83 95
b 75 41 53 55 67 69 81 95
b 76 41 53 54 55 67
b 77 53 67 81 93 95
b 78 53 67 80 81 93
b 79 53 66 67 80 93
b 80 81 93 94 95
b 81 55 67 68 69 81
b 82 69 81 82 83 95
b 83 83 95 96 97
b 84 29 41 42 43 55
b 85 17 29 30 31 43
b 86 43 55 56 57 69
b 87 57 69 70 71 83
b 88 71 83 84 85 97
b 89 85 97 98 99
b 90 31 43 44 45 57
b 91 45 57 58 59 71
b 92 59 71 72 73 85
b 93 73 85 86 87 99
b 94 87 99 100 101
b 95 66 79 80 93
b 96 78 90 91 103
1 5
2 6
3 95
4 96
5 69
6 34
7 8
7 55
8 9
9 10
9 54
10 11
10 53
11 12
11 52
12 13
12 51
13 14
13 15
15 16
15 50
16 17
16 49
17 18
17 48
18 19
18 47
19 20
19 46
20 21
20 45
21 22
21 44
22 23
22 40
23 24
23 39
24 25
24 38
25 26
25 37
26 27
26 31
27 28
27 29
27 30
31 32
31 36
32 33
32 34
32 35
40 41
40 43
41 42
42 96
55 56
55 94
56 57
56 93
57 58
57 92
58 59
58 91
59 60
59 90
60 61
60 89
61 62
61 88
62 63
62 87
63 64
63 86
64 65
64 85
65 66
65 84
66 67
66 73
67 68
67 72
68 69
68 70
68 71
73 74
73 83
74 75
74 82
75 76
75 77
75 81
77 78
77 80
78 79
79 95
